!HF def2-TZVPP  

% pointcharges "pointcharges.pc"

*xyz 0 1
O 0.0000000 0.0000000 0.0000000
H 0.0000000 0.78804198 0.59924105
H 0.0000000 -0.78804198 0.59924105
*
